20 50
1 8 92
1 9 55
1 10 51
1 17 91
1 20 70
2 7 48
2 11 73
2 12 50
2 14 99
2 17 63
3 6 55
3 8 44
3 18 11
4 5 21
4 6 39
4 7 27
4 8 12
4 19 30
5 10 55
5 16 2
6 9 94
6 10 5
6 16 92
6 19 57
7 11 95
8 16 35
8 18 6
9 13 23
10 14 21
10 15 36
10 17 53
11 13 47
11 15 60
11 16 29
11 18 18
12 17 86
12 18 66
12 20 83
13 14 91
13 15 25
14 17 17
14 20 33
15 17 100
15 19 46
15 20 76
16 19 7
17 18 16
17 20 73
18 19 90
18 20 25
